# Solution for model GasLib-40
# Objective value = 1.3703158379398962e+01
loadshed[innode_1] 0
loadshed[innode_2] 0
loadshed[innode_3] 0
loadshed[innode_4] 0
loadshed[innode_5] 0
loadshed[innode_6] 0
loadshed[innode_7] 0
loadshed[innode_8] 0
loadshed[source_1] -2.2130766137404057e-01
loadshed[source_2] -5.0428734455316482e-02
loadshed[source_3] 3.5841571964358632e-01
loadshed[sink_1] 0
loadshed[sink_2] 0
loadshed[sink_3] 0
loadshed[sink_4] 0
loadshed[sink_5] 0
loadshed[sink_6] 0
loadshed[sink_7] 0
loadshed[sink_8] 0
loadshed[sink_9] 0
loadshed[sink_10] 0
loadshed[sink_11] 0
loadshed[sink_12] 8.3790013020528675e-01
loadshed[sink_13] 0
loadshed[sink_14] 0
loadshed[sink_15] 0
loadshed[sink_16] 0
loadshed[sink_17] 0
loadshed[sink_18] 0
loadshed[sink_19] 0
loadshed[sink_20] 0
loadshed[sink_21] 0
loadshed[sink_22] 0
loadshed[sink_23] 0
loadshed[sink_24] 0
loadshed[sink_25] 0
loadshed[sink_26] 0
loadshed[sink_27] 0
loadshed[sink_28] 0
loadshed[sink_29] 0
flow[source_1,sink_3] 1.9307686743875024e+02
flow[innode_1,sink_16] 1.6354166666666970e+01
flow[innode_6,sink_13] 1.3050929567279297e+01
flow[sink_13,sink_14] -3.3032370993873705e+00
flow[sink_14,sink_10] -1.9657403766053903e+01
flow[sink_25,sink_26] 2.3160934162060096e+02
flow[sink_26,sink_9] 130.474820406337
flow[sink_9,sink_18] 1.1412065373967032e+02
flow[sink_26,sink_4] 8.4780354547597312e+01
flow[sink_4,sink_20] 2.2780144569403433e+01
flow[sink_18,sink_6] 9.7766487073003645e+01
flow[sink_25,innode_8] -1.6036853410541391e+02
flow[sink_6,sink_7] 4.8703987073003191e+01
flow[sink_6,sink_22] 3.2708333333333641e+01
flow[sink_7,sink_24] 3.5359341620601043e+01
flow[sink_22,sink_1] 1.6354166666666970e+01
flow[sink_24,sink_21] 1.9005174953934375e+01
flow[sink_21,sink_12] 2.6510082872677065e+00
flow[sink_7,sink_5] -3.0095212142639696e+00
flow[sink_5,sink_17] -1.9363687880930570e+01
flow[sink_17,sink_4] -4.5646043311527194e+01
flow[sink_17,sink_8] 9.9281887639299384e+00
flow[sink_3,sink_23] 16.3541666666697
flow[sink_8,sink_20] -6.4259779027368040e+00
flow[sink_25,sink_20] 0
flow[sink_25,sink_15] -1.0064590374913269e+02
flow[sink_15,sink_29] -6.4947497048885509e+01
flow[sink_29,sink_28] 1.6354166666667879e+01
flow[sink_29,sink_2] 6.8406740033580490e+01
flow[sink_2,sink_15] 5.2052573366913862e+01
flow[sink_29,innode_7] -1.6606257041580056e+02
flow[innode_4,sink_19] 1.0142823709940109e+02
flow[sink_19,innode_3] 3.3535022971278607e+01
flow[innode_4,innode_5] 0
flow[sink_27,innode_5] 0
flow[sink_27,sink_19] -1.6354166666679703e+01
flow[sink_10,sink_11] 3.2708333333333641e+01
flow[sink_10,innode_2] -3.5184880794776120e+01
flow[sink_10,innode_3] -3.3535022971278607e+01
flow[innode_6,sink_25] -1.3050929567279297e+01
flow[sink_11,innode_1] 1.6354166666666970e+01
flow[sink_19,innode_2] 3.5184880794776120e+01
flow[source_3,innode_4] 1.0142823709940109e+02
flow[source_2,innode_7] 1.6606257041580056e+02
flow[sink_3,innode_8] 1.6036853410541391e+02
pressure[innode_1] 7.4892766098557658e+01
pressure[innode_2] 7.6904133674482154e+01
pressure[innode_3] 7.6829874163541660e+01
pressure[innode_4] 81.01325
pressure[innode_5] 81.01325
pressure[innode_6] 7.4180735979420248e+01
pressure[innode_7] 81.01325
pressure[innode_8] 8.0367867790189052e+01
pressure[source_1] 81.01325
pressure[source_2] 81.01325
pressure[source_3] 81.01325
pressure[sink_1] 4.1218412023474592e+01
pressure[sink_2] 7.4838906864010283e+01
pressure[sink_3] 8.0367867790189052e+01
pressure[sink_4] 4.7089432367170289e+01
pressure[sink_5] 4.3902536322605748e+01
pressure[sink_6] 4.3319489633861963e+01
pressure[sink_7] 4.2650899984084020e+01
pressure[sink_8] 4.4970374750115745e+01
pressure[sink_9] 5.0059371318143754e+01
pressure[sink_10] 75.0444674061612
pressure[sink_11] 7.4892766098557658e+01
pressure[sink_12] 1.0132499999999998e+00
pressure[sink_13] 7.4108788385728772e+01
pressure[sink_14] 7.4114699809891718e+01
pressure[sink_15] 74.6689666841697
pressure[sink_16] 7.3871116263739978e+01
pressure[sink_17] 4.5344991104978973e+01
pressure[sink_18] 4.5930145927797142e+01
pressure[sink_19] 7.6904133674482154e+01
pressure[sink_20] 4.5418175039667553e+01
pressure[sink_21] 1.9566238388585702e+00
pressure[sink_22] 42.2821811658296
pressure[sink_23] 8.0203149778529266e+01
pressure[sink_24] 2.1670884935599370e+00
pressure[sink_25] 7.4180735979420248e+01
pressure[sink_26] 5.7868626065704760e+01
pressure[sink_27] 7.6553003677338651e+01
pressure[sink_28] 7.6276444517132347e+01
pressure[sink_29] 7.6571726790749523e+01
interdiction[source_1,sink_3] 0
interdiction[innode_1,sink_16] 0
interdiction[innode_6,sink_13] 0
interdiction[sink_13,sink_14] 0
interdiction[sink_14,sink_10] 0
interdiction[sink_25,sink_26] 0
interdiction[sink_26,sink_9] 0
interdiction[sink_9,sink_18] 0
interdiction[sink_26,sink_4] 0
interdiction[sink_4,sink_20] 0
interdiction[sink_18,sink_6] 0
interdiction[sink_25,innode_8] 0
interdiction[sink_6,sink_7] 0
interdiction[sink_6,sink_22] 0
interdiction[sink_7,sink_24] 0
interdiction[sink_22,sink_1] 0
interdiction[sink_24,sink_21] 0
interdiction[sink_21,sink_12] 0
interdiction[sink_7,sink_5] 0
interdiction[sink_5,sink_17] 0
interdiction[sink_17,sink_4] 0
interdiction[sink_17,sink_8] 0
interdiction[sink_3,sink_23] 0
interdiction[sink_8,sink_20] 0
interdiction[sink_25,sink_20] 1
interdiction[sink_25,sink_15] 0
interdiction[sink_15,sink_29] 0
interdiction[sink_29,sink_28] 0
interdiction[sink_29,sink_2] 0
interdiction[sink_2,sink_15] 0
interdiction[sink_29,innode_7] 0
interdiction[innode_4,sink_19] 0
interdiction[sink_19,innode_3] 0
interdiction[innode_4,innode_5] 0
interdiction[sink_27,innode_5] 1
interdiction[sink_27,sink_19] 0
interdiction[sink_10,sink_11] 0
interdiction[sink_10,innode_2] 0
interdiction[sink_10,innode_3] 0
interdiction[innode_6,sink_25] 0
interdiction[sink_11,innode_1] 0
interdiction[sink_19,innode_2] 0
interdiction[source_3,innode_4] 0
interdiction[source_2,innode_7] 0
interdiction[sink_3,innode_8] 0
WCcheckFlow[source_1,sink_3] 39
WCcheckFlow[innode_1,sink_16] 1
WCcheckFlow[innode_6,sink_13] 13
WCcheckFlow[sink_13,sink_14] 12
WCcheckFlow[sink_14,sink_10] 11
WCcheckFlow[sink_25,sink_26] 15
WCcheckFlow[sink_26,sink_9] 12
WCcheckFlow[sink_9,sink_18] 11
WCcheckFlow[sink_26,sink_4] 2
WCcheckFlow[sink_4,sink_20] 1
WCcheckFlow[sink_18,sink_6] 10
WCcheckFlow[sink_25,innode_8] -36
WCcheckFlow[sink_6,sink_7] 7
WCcheckFlow[sink_6,sink_22] 2
WCcheckFlow[sink_7,sink_24] 3
WCcheckFlow[sink_22,sink_1] 1
WCcheckFlow[sink_24,sink_21] 2
WCcheckFlow[sink_21,sink_12] 1
WCcheckFlow[sink_7,sink_5] 3
WCcheckFlow[sink_5,sink_17] 2
WCcheckFlow[sink_17,sink_4] 0
WCcheckFlow[sink_17,sink_8] 1
WCcheckFlow[sink_3,sink_23] 1
WCcheckFlow[sink_8,sink_20] 0
WCcheckFlow[sink_25,sink_20] 0
WCcheckFlow[sink_25,sink_15] 6
WCcheckFlow[sink_15,sink_29] 5
WCcheckFlow[sink_29,sink_28] 1
WCcheckFlow[sink_29,sink_2] 1
WCcheckFlow[sink_2,sink_15] 0
WCcheckFlow[sink_29,innode_7] 2
WCcheckFlow[innode_4,sink_19] -3
WCcheckFlow[sink_19,innode_3] -5
WCcheckFlow[innode_4,innode_5] 1
WCcheckFlow[sink_27,innode_5] 0
WCcheckFlow[sink_27,sink_19] -1
WCcheckFlow[sink_10,sink_11] 3
WCcheckFlow[sink_10,innode_2] 1
WCcheckFlow[sink_10,innode_3] 6
WCcheckFlow[innode_6,sink_25] -14
WCcheckFlow[sink_11,innode_1] 2
WCcheckFlow[sink_19,innode_2] 0
WCcheckFlow[source_3,innode_4] -1
WCcheckFlow[source_2,innode_7] -1
WCcheckFlow[sink_3,innode_8] 37
